language Essence 1.3
$ generated by bacp-gen.pl with seed 2049716937
$ edge probability 0.0938
$ course loads in range 2..3
letting n_courses be 143
letting n_periods be 28
letting load_per_period_lb be 3
letting load_per_period_ub be 40
letting courses_per_period_lb be 5
letting courses_per_period_ub be 9
letting course_load be function(
1 --> 3,
2 --> 2,
3 --> 2,
4 --> 2,
5 --> 3,
6 --> 3,
7 --> 2,
8 --> 2,
9 --> 2,
10 --> 3,
11 --> 2,
12 --> 3,
13 --> 2,
14 --> 2,
15 --> 3,
16 --> 2,
17 --> 3,
18 --> 3,
19 --> 3,
20 --> 3,
21 --> 2,
22 --> 3,
23 --> 2,
24 --> 3,
25 --> 2,
26 --> 2,
27 --> 2,
28 --> 3,
29 --> 3,
30 --> 2,
31 --> 2,
32 --> 2,
33 --> 3,
34 --> 2,
35 --> 2,
36 --> 3,
37 --> 2,
38 --> 2,
39 --> 2,
40 --> 2,
41 --> 3,
42 --> 2,
43 --> 3,
44 --> 2,
45 --> 2,
46 --> 2,
47 --> 2,
48 --> 2,
49 --> 2,
50 --> 2,
51 --> 2,
52 --> 2,
53 --> 3,
54 --> 3,
55 --> 3,
56 --> 2,
57 --> 3,
58 --> 3,
59 --> 2,
60 --> 3,
61 --> 2,
62 --> 2,
63 --> 3,
64 --> 2,
65 --> 2,
66 --> 3,
67 --> 2,
68 --> 2,
69 --> 2,
70 --> 3,
71 --> 2,
72 --> 2,
73 --> 2,
74 --> 2,
75 --> 2,
76 --> 3,
77 --> 2,
78 --> 2,
79 --> 2,
80 --> 2,
81 --> 2,
82 --> 3,
83 --> 2,
84 --> 2,
85 --> 2,
86 --> 2,
87 --> 2,
88 --> 2,
89 --> 2,
90 --> 2,
91 --> 3,
92 --> 3,
93 --> 2,
94 --> 2,
95 --> 2,
96 --> 2,
97 --> 2,
98 --> 2,
99 --> 2,
100 --> 2,
101 --> 2,
102 --> 3,
103 --> 2,
104 --> 2,
105 --> 2,
106 --> 2,
107 --> 2,
108 --> 2,
109 --> 3,
110 --> 2,
111 --> 2,
112 --> 3,
113 --> 2,
114 --> 2,
115 --> 2,
116 --> 2,
117 --> 2,
118 --> 3,
119 --> 2,
120 --> 2,
121 --> 2,
122 --> 3,
123 --> 2,
124 --> 2,
125 --> 2,
126 --> 2,
127 --> 2,
128 --> 3,
129 --> 2,
130 --> 3,
131 --> 2,
132 --> 3,
133 --> 3,
134 --> 2,
135 --> 2,
136 --> 2,
137 --> 2,
138 --> 2,
139 --> 3,
140 --> 3,
141 --> 2,
142 --> 2,
143 --> 2
)
letting prerequisite be relation (
(14,19),
(9,20),
(3,21),
(6,22),
(10,23),
(8,24),
(16,25),
(18,26),
(8,27),
(4,28),
(7,29),
(13,30),
(14,31),
(3,32),
(4,33),
(8,34),
(18,35),
(4,36),
(16,37),
(18,38),
(7,39),
(5,40),
(1,41),
(1,42),
(18,43),
(16,44),
(13,45),
(15,46),
(10,47),
(6,48),
(2,49),
(3,50),
(11,51),
(7,52),
(15,53),
(13,54),
(8,55),
(10,56),
(15,57),
(7,58),
(5,59),
(2,60),
(10,61),
(17,62),
(7,63),
(12,64),
(5,65),
(10,66),
(12,67),
(2,68),
(14,69),
(18,70),
(4,71),
(3,72),
(9,73),
(5,74),
(1,75),
(16,76),
(4,77),
(10,78),
(2,79),
(8,80),
(6,81),
(3,82),
(17,83),
(16,84),
(12,85),
(9,86),
(15,87),
(6,88),
(18,89),
(9,90),
(18,91),
(27,92),
(72,93),
(42,94),
(58,95),
(60,96),
(29,97),
(59,98),
(36,99),
(24,100),
(36,101),
(58,102),
(37,103),
(85,104),
(88,105),
(91,106),
(46,107),
(31,108),
(76,109),
(57,110),
(78,111),
(24,112),
(39,113),
(59,114),
(58,115),
(31,116),
(91,117),
(19,118),
(46,119),
(32,120),
(68,121),
(61,122),
(29,123),
(86,124),
(57,125),
(81,126),
(74,127),
(23,128),
(79,129),
(48,130),
(65,131),
(45,132),
(37,133),
(38,134),
(32,135),
(82,136),
(81,137),
(57,138),
(31,139),
(76,140),
(67,141),
(62,142),
(89,143),
(33,116),
(8,22),
(40,140),
(85,100),
(33,111),
(62,107),
(74,137),
(4,59),
(34,133),
(76,108),
(26,115),
(81,116),
(11,57),
(80,114),
(7,76),
(38,120),
(6,52),
(18,65),
(16,23),
(80,94),
(24,119),
(2,48),
(12,55),
(4,88),
(10,53),
(90,140),
(9,25),
(34,93),
(22,100),
(36,96),
(12,43),
(32,103),
(13,60),
(86,130),
(52,140),
(55,131),
(12,49),
(40,110),
(14,37),
(39,130),
(84,104),
(83,93),
(10,50),
(85,120),
(16,62),
(4,69),
(79,118),
(1,67),
(6,34),
(3,80),
(13,43),
(46,142),
(88,141),
(18,67),
(74,113),
(9,29),
(43,102),
(10,90),
(10,62),
(62,131),
(16,56),
(61,142),
(33,95),
(59,141),
(60,122),
(29,115),
(17,61),
(52,116),
(26,140),
(87,119),
(5,71),
(21,140),
(10,45),
(7,77),
(3,52),
(17,41),
(13,62),
(89,112),
(71,105),
(77,106),
(10,80),
(9,80),
(17,59),
(36,117),
(18,59),
(1,52),
(25,93),
(7,28),
(34,127),
(62,119),
(28,106),
(16,87),
(10,38),
(3,71),
(4,82),
(1,90),
(8,61),
(16,89),
(5,78),
(17,40),
(7,35),
(14,29),
(83,109),
(10,33),
(15,50),
(14,72),
(15,82),
(13,22),
(3,64),
(9,72),
(90,142),
(24,104),
(46,117),
(7,85),
(43,133),
(56,126),
(52,137),
(2,61),
(12,69),
(17,44),
(81,142),
(49,118),
(7,38),
(67,98),
(36,135),
(1,37),
(11,22),
(15,29),
(11,91),
(44,128),
(51,132),
(68,114),
(59,135),
(26,110),
(29,120),
(76,138),
(43,105),
(1,21),
(3,28),
(37,120),
(85,117),
(13,42),
(6,21),
(15,66),
(75,125),
(23,112),
(1,33),
(2,36),
(13,61),
(27,109),
(37,114),
(25,105),
(9,51),
(43,129),
(1,57),
(12,57),
(2,25),
(6,41),
(1,26),
(8,73),
(2,32),
(14,87),
(17,86),
(15,60),
(40,138),
(12,22),
(37,115),
(33,143),
(17,32),
(15,48),
(8,38),
(6,47),
(14,25),
(19,112),
(5,73),
(57,117),
(13,82),
(90,110),
(12,56),
(11,53),
(54,136),
(18,85),
(12,20),
(64,98),
(50,99),
(18,44),
(10,71),
(64,111),
(79,100),
(82,105),
(81,107),
(21,115),
(12,25),
(2,74),
(6,63),
(57,104),
(84,141),
(1,77),
(77,98),
(1,23),
(17,45),
(10,35),
(12,45),
(10,85),
(70,108),
(69,98),
(79,103),
(22,119),
(17,52),
(8,84),
(32,101),
(9,24),
(45,104),
(31,93),
(12,54),
(68,102),
(56,103),
(23,127),
(7,74),
(57,94),
(10,84),
(59,122),
(24,135),
(61,94),
(5,82),
(29,121),
(64,113),
(11,81),
(91,94),
(12,88),
(2,44),
(46,120),
(85,126),
(5,42),
(22,137),
(7,59),
(15,47),
(3,84),
(70,109),
(87,99),
(18,34),
(67,135),
(11,74),
(14,24),
(28,132),
(45,139),
(7,80),
(18,51),
(2,52),
(9,27),
(51,100),
(7,19),
(47,93),
(61,119),
(5,49),
(17,42),
(2,53),
(27,142),
(90,101),
(38,92),
(20,99),
(59,105),
(47,131),
(6,36),
(14,73),
(3,77),
(3,61),
(11,84),
(35,122),
(67,107),
(13,56),
(64,137),
(9,79),
(50,106),
(14,58),
(20,100),
(53,126),
(57,97),
(43,118),
(39,92),
(56,134),
(6,77),
(16,74),
(33,117),
(41,130),
(2,42),
(13,47),
(39,135),
(71,126),
(14,40),
(1,22),
(48,103),
(18,28),
(34,135),
(5,35),
(64,125),
(11,37),
(12,50),
(16,42),
(34,102),
(7,41),
(50,129),
(14,54),
(66,120),
(41,99),
(7,69),
(15,63),
(17,23),
(64,142),
(73,121),
(22,131),
(14,88),
(57,101),
(26,142),
(83,132),
(19,107),
(7,72),
(16,66),
(3,58),
(38,113),
(7,49),
(83,115),
(13,71),
(90,121),
(15,20),
(3,33),
(60,134),
(66,102),
(2,88),
(8,60),
(13,88),
(7,84),
(86,132),
(11,46),
(48,137),
(10,63),
(10,31),
(67,105),
(8,91),
(4,85),
(89,115),
(84,94),
(4,64),
(31,96),
(5,38),
(9,82),
(59,101),
(13,36),
(76,116),
(39,120),
(2,27),
(1,88),
(59,109),
(4,83)
)

